Demo-pulp.lp
\* Demo *\
Maximize
Objective_Function: 5 x_1 + 3 x_2 + 4 x_3
Subject To
Constraint_1: 2 x_1 + x_2 + x_3 <= 20
Constraint_2: 3 x_1 + x_2 + 2 x_3 <= 30
End
