Demo-pulp.sol
Problem:    
Rows:       2
Columns:    3
Non-zeros:  6
Status:     OPTIMAL
Objective:  Objective_Function = 70 (MAXimum)

   No.   Row name   St   Activity     Lower bound   Upper bound    Marginal
------ ------------ -- ------------- ------------- ------------- -------------
     1 Constraint_1 NU            20                          20             2 
     2 Constraint_2 NU            30                          30             1 

   No. Column name  St   Activity     Lower bound   Upper bound    Marginal
------ ------------ -- ------------- ------------- ------------- -------------
     1 x_1          NL             0             0                          -2 
     2 x_2          B             10             0               
     3 x_3          B             10             0               

Karush-Kuhn-Tucker optimality conditions:

KKT.PE: max.abs.err = 0.00e+00 on row 0
        max.rel.err = 0.00e+00 on row 0
        High quality

KKT.PB: max.abs.err = 0.00e+00 on row 0
        max.rel.err = 0.00e+00 on row 0
        High quality

KKT.DE: max.abs.err = 4.44e-16 on column 3
        max.rel.err = 4.93e-17 on column 3
        High quality

KKT.DB: max.abs.err = 0.00e+00 on row 0
        max.rel.err = 0.00e+00 on row 0
        High quality

End of output
